000 000 000 000 000 -99 000 000 000 -99 -99 -99 000 000 000 000 -99 -99 000 000 000 000 000 000 000 000 000 -99 -99 -99 -99
000 000 000 000 000 -99 000 000 -99 -99 -99 -99 -99 000 000 000 -99 -99 -99 000 000 000 000 000 000 000 000 -99 -99 -99 -99
-99 000 000 000 000 000 000 000 000 000 -99 -99 -99 -99 000 000 000 -99 -99 000 000 000 000 000 000 000 000 000 -99 -99 -99
000 000 000 000 000 000 000 000 000 000 000 -99 -99 -99 000 000 000 -99 -99 000 000 000 000 000 000 000 000 000 -99 -99 -99
000 000 000 000 000 000 000 000 000 000 000 -99 000 000 000 000 000 000 -99 -99 000 000 000 000 000 000 000 -99 -99 -99 -99
000 000 000 000 000 000 000 000 000 000 000 -99 000 -99 000 000 000 000 -99 -99 000 000 000 000 000 000 -99 -99 -99 -99 -99
000 000 000 000 000 000 000 000 000 000 000 000 000 000 -99 -99 000 000 -99 -99 000 000 000 000 000 000 -99 -99 -99 -99 -99
000 000 000 000 000 -99 000 000 000 000 000 000 -99 000 -99 -99 000 000 000 -99 000 000 000 000 000 -99 -99 -99 -99 000 -99
000 000 000 000 000 -99 -99 -99 000 000 000 000 -99 -99 -99 -99 -99 000 000 000 000 000 000 000 000 -99 -99 -99 -99 000 000
000 000 000 000 000 -99 -99 000 -99 000 000 000 -99 -99 000 000 -99 000 000 000 000 000 -99 -99 000 000 -99 -99 000 000 000
000 000 000 000 000 -99 000 000 000 000 000 000 -99 -99 -99 000 000 000 000 000 000 000 -99 -99 -99 -99 -99 -99 000 000 000
000 000 000 000 000 000 000 000 000 000 000 000 -99 -99 -99 000 000 000 000 000 000 000 -99 -99 -99 -99 -99 -99 000 000 000
000 000 000 000 000 000 000 000 000 000 000 000 -99 -99 -99 000 000 -99 000 000 -99 000 -99 -99 000 -99 -99 000 000 000 000
000 000 000 000 000 000 000 000 000 000 000 000 -99 000 -99 000 000 -99 000 000 -99 000 -99 000 000 -99 000 000 000 -99 000
000 -99 000 000 000 000 000 000 000 000 -99 -99 000 000 -99 000 000 000 000 000 000 000 -99 000 000 000 000 000 000 -99 000
000 000 -99 000 000 000 000 000 000 000 -99 -99 000 000 000 000 000 000 000 000 -99 000 -99 000 000 000 000 000 -99 -99 -99
000 000 -99 -99 -99 000 000 000 000 000 -99 -99 -99 000 000 000 000 000 000 000 -99 -99 000 000 000 000 000 000 000 000 -99
-99 000 000 -99 -99 -99 000 000 000 000 -99 -99 000 000 000 000 000 000 000 -99 -99 000 000 -99 000 000 000 000 000 000 -99
000 000 000 000 -99 -99 000 000 000 000 -99 000 000 000 000 000 000 000 000 000 000 000 000 -99 000 000 000 -99 -99 -99 -99
000 000 000 000 -99 -99 -99 000 000 000 000 000 000 000 000 000 000 000 000 000 000 000 000 -99 -99 -99 -99 -99 -99 -99 -99
000 000 000 000 000 000 -99 000 000 000 000 000 -99 -99 000 000 000 000 000 000 000 000 000 -99 -99 -99 -99 -99 -99 -99 -99
000 000 000 000 000 000 -99 000 000 000 -99 -99 -99 -99 000 000 000 000 000 000 000 000 000 -99 -99 -99 -99 -99 -99 -99 -99
000 000 000 000 000 000 -99 000 000 000 -99 -99 -99 000 000 000 000 000 000 000 000 000 000 -99 -99 -99 -99 -99 -99 -99 -99
000 000 000 000 000 000 -99 000 000 000 -99 -99 000 000 000 000 000 000 000 000 000 000 000 -99 -99 -99 -99 -99 -99 -99 -99
000 000 000 000 000 000 -99 000 -99 -99 -99 -99 -99 000 000 000 000 000 000 000 000 000 000 -99 -99 -99 -99 -99 -99 -99 -99
000 000 000 000 000 000 000 000 000 -99 -99 -99 000 000 000 000 000 000 000 000 000 000 -99 -99 -99 -99 -99 -99 -99 -99 -99
000 000 000 000 000 000 000 000 000 000 000 -99 -99 000 000 000 000 000 000 000 000 000 000 -99 -99 -99 -99 -99 -99 -99 -99
000 000 000 000 000 000 000 000 000 000 -99 -99 -99 -99 000 000 000 000 000 000 000 000 000 -99 -99 -99 -99 -99 021 017 008
000 000 000 000 000 000 000 000 000 000 000 -99 -99 000 000 000 000 000 000 000 000 000 -99 -99 -99 -99 -99 -99 021 017 008
000 000 000 000 000 000 000 000 000 000 000 -99 -99 000 000 000 -99 000 000 000 000 000 -99 -99 -99 -99 -99 -99 -99 -99 -99
000 000 000 000 000 000 000 000 000 000 000 -99 -99 000 000 000 -99 000 000 000 -99 -99 -99 -99 -99 -99 -99 -99 -99 -99 -99
000 000 000 000 000 000 000 000 000 000 000 -99 -99 000 000 -99 -99 000 000 -99 -99 -99 -99 -99 -99 -99 -99 -99 -99 -99 -99
000 000 000 000 000 000 000 000 000 000 -99 -99 -99 000 000 -99 -99 000 000 -99 -99 -99 -99 -99 -99 -99 -99 -99 -99 -99 000
000 000 000 000 000 000 000 000 000 000 -99 -99 -99 000 000 000 000 000 -99 -99 -99 000 -99 -99 -99 -99 -99 000 -99 000 000
000 000 000 000 000 000 000 000 000 000 000 -99 000 000 000 000 000 -99 -99 -99 000 -99 -99 000 -99 -99 000 000 -99 000 000
000 000 000 000 000 000 000 000 000 000 000 -99 000 000 000 000 000 -99 000 000 000 -99 000 000 -99 -99 000 000 000 000 000
000 000 -99 000 000 000 000 000 000 000 000 -99 000 000 000 000 000 000 000 000 000 000 000 000 -99 -99 000 000 000 000 000
000 -99 -99 000 000 000 000 000 000 000 -99 -99 000 000 000 000 000 -99 000 000 000 000 000 000 000 000 000 000 000 000 000
000 -99 -99 000 000 000 -99 000 000 000 -99 000 000 000 000 000 000 000 000 000 000 000 000 000 000 000 000 000 000 000 000
000 000 000 000 000 -99 -99 -99 -99 -99 -99 000 000 000 000 000 000 000 000 000 000 000 000 000 000 000 000 000 000 000 000
000 000 000 000 000 -99 -99 -99 -99 -99 000 000 000 000 000 000 000 000 000 000 000 000 000 000 000 000 000 000 000 000 000
000 000 000 000 000 -99 -99 000 -99 -99 000 000 000 000 000 000 000 000 000 000 000 000 000 000 000 000 000 000 000 000 000
000 000 -99 000 -99 -99 -99 -99 000 000 000 000 000 000 000 000 000 000 000 000 000 000 000 000 000 000 000 000 000 000 000
000 -99 -99 -99 -99 -99 -99 -99 -99 -99 000 000 000 000 000 000 000 000 000 000 000 000 000 000 000 000 000 000 000 000 000
000 000 -99 -99 -99 -99 -99 -99 -99 -99 -99 000 000 000 000 000 000 000 000 -99 000 000 000 000 000 000 000 000 000 -99 000
000 -99 -99 -99 -99 -99 -99 -99 -99 -99 000 000 000 000 000 -99 000 000 -99 -99 -99 000 000 000 000 000 000 -99 -99 000 000
000 -99 -99 -99 -99 -99 -99 -99 -99 -99 -99 000 -99 000 -99 -99 -99 -99 000 000 000 000 000 000 000 000 000 -99 -99 000 000
000 -99 -99 -99 -99 -99 -99 -99 -99 000 -99 -99 -99 000 -99 -99 -99 000 000 000 000 000 000 000 000 000 -99 -99 -99 000 000
000 -99 -99 -99 -99 -99 -99 -99 000 000 -99 -99 000 000 -99 -99 -99 000 000 000 000 000 000 -99 000 000 000 000 -99 000 000
-99 -99 -99 -99 -99 -99 -99 -99 000 000 000 000 -99 -99 -99 -99 000 000 000 000 000 000 -99 -99 -99 -99 000 000 -99 000 000
-99 -99 -99 -99 -99 -99 -99 -99 000 000 000 000 -99 -99 -99 -99 -99 -99 000 000 000 000 -99 000 -99 -99 000 -99 -99 -99 -99
-99 -99 -99 -99 -99 -99 -99 -99 -99 000 000 -99 -99 -99 -99 -99 -99 000 000 000 000 -99 -99 000 000 000 000 -99 -99 -99 -99
-99 -99 -99 -99 -99 -99 -99 -99 -99 -99 -99 -99 -99 -99 -99 -99 -99 000 000 000 000 -99 000 000 000 -99 -99 -99 -99 -99 -99
-99 -99 -99 -99 -99 -99 -99 -99 -99 -99 -99 -99 -99 -99 -99 -99 000 000 000 000 000 -99 000 000 -99 -99 -99 -99 -99 -99 -99
-99 -99 -99 -99 -99 -99 -99 -99 -99 -99 -99 -99 -99 -99 -99 000 000 000 000 000 000 -99 -99 -99 -99 -99 -99 -99 -99 -99 -99
